20
587 233 220
110 60 55
80 78 71
110 75 50
100 72 40
103 60 32
70 60 49
80 72 62
120 74 67
75 52 37
57 54 48
62 55 53
83 73 36
75 64 40
98 80 31
112 100 52
56 49 44
74 28 26
68 67 52
116 96 27
92 65 45
thpack7_81